\ This file has been generated by DOcplex
\ ENCODING=ISO-8859-1
\Problem name: random_problem.lp

Minimize
 obj: - 3 x0 - 8 x1 + 8 x2 - 4 x3 - 5 x4 + 7 x5 + 10 x6 + 5 x7 - 9 x8 - 2 x9
      + 5 x10 - 3 x11 + 3 x12 - 5 x13 + 10 x14 + 7 x15 + 7 x16 - 4 x17 + 4 x18
      - 10 x19 + 8 x20 + 2 x21 + 8 x22 + 9 x23 - 9 x24 - 9 x25 - 3 x26 + 9 x27
      - 6 x28 - 5 x30 + 2 x31 - 3 x32 + 6 x33 + 10 x34 + 5 x35 - 4 x36 - 5 x37
      + 8 x38 - 10 x39 - 2 x40 - 3 x41 + 4 x42 + 8 x43 - 7 x44 + 8 x45 + 8 x46
      + 4 x47 - 6 x48 + x49 - 2 x51 + x52 + x53 + 3 x54 - 9 x55 + 8 x56 + 9 x57
      - 8 x58 - 2 x59 - 7 x60 + x61 - 5 x62 - 5 x63 + 3 x64 + [ - 14 x0*x2
      + 14 x0*x6 - 18 x0*x8 + 6 x0*x17 + 8 x0*x26 + 20 x0*x27 - 8 x0*x41
      + 18 x0*x44 - 4 x0*x46 - 10 x0*x54 - 14 x1*x7 + 2 x1*x8 + 2 x1*x10
      - 10 x1*x12 + 2 x1*x27 + 2 x1*x32 - 10 x1*x33 + 16 x1*x41 - 14 x1*x43
      - 12 x1*x49 + 14 x2*x11 + 12 x2*x15 - 16 x2*x32 - 18 x2*x44 - 18 x2*x46
      - 8 x2*x49 + 14 x2*x52 + 4 x2*x57 + 12 x2*x62 - 18 x3*x21 + 2 x3*x24
      - 10 x3*x33 - 20 x3*x37 - 14 x3*x48 + 12 x3*x50 + 4 x3*x55 - 4 x3*x56
      + 10 x3*x57 + 12 x3*x63 + 4 x4*x5 - 10 x4*x6 - 8 x4*x8 + 10 x4*x19
      + 18 x4*x20 - 2 x4*x31 + 2 x4*x37 - 10 x4*x42 + 4 x4*x46 + 20 x4*x58
      - 16 x5*x12 - 2 x5*x13 + 12 x5*x17 - 18 x5*x23 - 10 x5*x29 + 8 x5*x34
      - 2 x5*x38 - 10 x5*x51 - 6 x5*x62 + 8 x6*x20 - 14 x6*x23 + 18 x6*x24
      + 12 x6*x28 - 14 x6*x29 + 18 x6*x39 - 8 x6*x44 + 14 x6*x53 - 16 x7*x10
      - 18 x7*x22 - 6 x7*x23 + 10 x7*x28 + 4 x7*x42 + 18 x7*x44 + 2 x7*x47
      + 18 x7*x50 + 10 x7*x60 - 20 x8*x9 + 6 x8*x10 - 14 x8*x11 + 20 x8*x17
      + 2 x8*x22 - 14 x8*x32 + 8 x8*x35 + 12 x9*x18 + 8 x9*x30 + 2 x9*x40
      + 4 x9*x43 + 18 x9*x51 + 4 x9*x55 + 18 x9*x57 - 8 x9*x58 - 14 x9*x59
      + 6 x10*x12 - 6 x10*x13 - 20 x10*x21 - 4 x10*x22 - 10 x10*x29 + 8 x10*x43
      - 20 x10*x61 - 10 x11*x18 + 8 x11*x26 + 18 x11*x27 + 16 x11*x29
      + 14 x11*x36 + 2 x11*x47 + 6 x11*x52 - 14 x11*x56 + 18 x12*x15
      + 10 x12*x19 - 14 x12*x28 - 2 x12*x47 - 6 x12*x51 - 6 x12*x60 - 16 x12*x64
      + 12 x13*x18 - 16 x13*x26 + 2 x13*x28 - 10 x13*x37 + 18 x13*x57
      - 20 x13*x59 - 4 x13*x61 + 4 x13*x62 - 4 x14*x19 + 6 x14*x23 + 8 x14*x26
      - 18 x14*x38 + 20 x14*x51 + 8 x14*x52 - 14 x14*x54 - 8 x14*x55 - 8 x14*x57
      + 16 x14*x61 - 2 x15*x18 - 18 x15*x19 - 10 x15*x21 + 16 x15*x48
      + 14 x15*x56 - 2 x15*x58 - 18 x15*x59 + 18 x15*x63 + 12 x16*x18
      - 14 x16*x21 + 20 x16*x28 + 10 x16*x32 - 18 x16*x40 + 14 x16*x43
      + 4 x16*x47 - 16 x16*x53 + 2 x16*x63 - 4 x16*x64 + 14 x17*x18 - 2 x17*x27
      + 16 x17*x35 - 18 x17*x45 + 20 x17*x48 + 6 x17*x56 + 2 x17*x64
      + 12 x18*x46 + 14 x18*x53 - 18 x18*x59 - 8 x18*x62 - 4 x19*x25
      - 10 x19*x34 - 20 x19*x39 - 8 x19*x42 - 12 x19*x62 - 10 x19*x63
      - 12 x20*x22 + 4 x20*x29 - 6 x20*x34 + 2 x20*x37 - 8 x20*x38 - 6 x20*x41
      - 4 x20*x50 - 20 x20*x61 - 12 x21*x25 - 14 x21*x27 + 4 x21*x31 - 4 x21*x42
      + 20 x21*x51 - 20 x21*x55 - 4 x22*x29 + 6 x22*x45 - 4 x22*x46 - 10 x22*x57
      + 4 x22*x61 + 4 x22*x62 + 20 x23*x35 + 14 x23*x36 + 2 x23*x45 + 4 x23*x46
      + 14 x23*x53 - 2 x23*x59 + 8 x24*x30 + 12 x24*x33 - 4 x24*x34 + 16 x24*x35
      - 20 x24*x48 + 10 x24*x56 - 20 x24*x58 + 14 x24*x59 + 8 x25*x32
      - 12 x25*x37 - 18 x25*x40 - 16 x25*x43 + 16 x25*x45 + 12 x25*x48
      + 4 x25*x50 - 20 x25*x64 + 12 x26*x31 + 2 x26*x41 - 16 x26*x51 + 2 x26*x52
      - 16 x26*x54 + 16 x26*x55 + 4 x27*x36 + 10 x27*x39 + 18 x27*x52
      + 14 x27*x60 + 10 x27*x64 - 10 x28*x36 - 16 x28*x40 - 14 x28*x49
      - 4 x28*x53 - 18 x28*x61 - 18 x29*x31 - 16 x29*x36 - 10 x29*x48
      + 18 x29*x49 + 20 x30*x34 + 20 x30*x35 + 20 x30*x40 + 4 x30*x49
      + 18 x30*x54 - 10 x30*x55 - 16 x30*x57 + 10 x30*x61 - 4 x31*x42
      - 18 x31*x47 - 8 x31*x50 + 4 x31*x51 - 16 x31*x53 - 14 x31*x54
      - 18 x32*x35 - 10 x32*x40 + 2 x32*x43 - 8 x32*x56 - 4 x32*x60 + 12 x33*x44
      - 2 x33*x50 + 16 x33*x52 + 12 x33*x53 + 12 x33*x54 + 18 x33*x61
      + 8 x33*x62 + 18 x34*x39 - 10 x34*x43 + 16 x34*x57 + 4 x34*x60 - 2 x34*x62
      - 8 x35*x39 - 12 x35*x41 + 20 x35*x47 + 12 x35*x49 - 8 x36*x42
      - 10 x36*x56 + 16 x36*x57 - 6 x36*x59 - 2 x36*x63 + 6 x37*x39 - 10 x37*x46
      + 18 x37*x58 - 16 x37*x61 - 14 x37*x63 + 12 x38*x40 - 16 x38*x44
      - 16 x38*x48 + 20 x38*x54 - 2 x38*x58 - 14 x38*x59 - 14 x38*x64
      - 10 x39*x42 + 2 x39*x48 + 8 x39*x55 + 8 x39*x60 + 6 x40*x42 - 20 x40*x52
      - 12 x40*x56 - 16 x41*x42 - 4 x41*x45 + 6 x41*x49 - 18 x41*x58 + 6 x41*x62
      + 8 x42*x46 + 16 x43*x45 + 4 x43*x52 + 2 x43*x63 + 12 x44*x45 - 16 x44*x46
      - 4 x44*x50 + 6 x44*x58 + 20 x45*x53 + 20 x45*x63 - 18 x45*x64 + 2 x46*x64
      + 8 x47*x56 + 8 x47*x60 + 6 x47*x63 + 6 x47*x64 + 4 x48*x50 + 12 x48*x61
      - 14 x49*x51 + 14 x49*x55 + 6 x49*x56 - 6 x50*x53 + 16 x50*x60
      - 16 x51*x54 - 18 x51*x55 + 12 x52*x59 - 12 x52*x60 - 4 x53*x58
      + 10 x54*x60 - 14 x54*x62 + 16 x55*x64 - 16 x57*x63 - 8 x58*x59 ]/2
Subject To
 c0: - x4 - x13 + x21 + x28 - 2 x33 - x41 + x43 + 2 x45 - x54 - 2 x60 = -2
 c1: - x0 - x3 + 2 x6 - x21 + 2 x22 - x23 + 2 x31 + 2 x34 - x47 + 2 x52 = 1
 c2: 2 x5 - 2 x6 + 2 x7 - x17 - x36 - 2 x42 - 2 x45 + x49 - 2 x59 + x61 = -2
 c3: x7 + 2 x24 + x35 - 2 x37 + 2 x39 - 2 x41 + x44 + x46 + 2 x53 + 2 x57 = 0
 c4: 2 x0 + 2 x5 - x17 + 2 x23 + x26 - x28 + 2 x33 - 2 x37 - 2 x62 - 2 x64 = -2
 c5: 2 x7 + x12 + 2 x24 + 2 x27 + x32 + 2 x37 - x43 + 2 x52 - 2 x59 + x64 = 0
 c6: - x5 + x25 + x26 + 2 x30 - 2 x35 - 2 x41 + x49 + 2 x51 - 2 x54 - x56 = -1
 c7: x3 - x10 - x16 - 2 x20 + 2 x26 - 2 x29 - 2 x30 - x34 + x42 + x56 = -2
 c8: - 2 x4 - 2 x14 + 2 x21 - 2 x22 + 2 x33 - x38 - 2 x41 + x43 - 2 x50 - x57
      = 1
 c9: - 2 x11 + 2 x17 + x19 - 2 x26 + 2 x31 + 2 x32 - x34 - x42 - 2 x53 + x62 = 
     -2
 c10: 2 x5 - 2 x10 - x27 + x33 + 2 x37 - 2 x43 + x48 + x52 - x53 + 2 x63 = 1
 c11: - 2 x3 + 2 x6 + 2 x7 + x12 + x16 - x17 + 2 x20 - 2 x39 - x45 - 2 x54 = -1
 c12: 2 x6 - x12 + 2 x13 + 2 x15 - 2 x20 - x29 - 2 x41 - 2 x46 - x48 - x50 = 0

Bounds
 0 <= x0 <= 1
 0 <= x1 <= 1
 0 <= x2 <= 1
 0 <= x3 <= 1
 0 <= x4 <= 1
 0 <= x5 <= 1
 0 <= x6 <= 1
 0 <= x7 <= 1
 0 <= x8 <= 1
 0 <= x9 <= 1
 0 <= x10 <= 1
 0 <= x11 <= 1
 0 <= x12 <= 1
 0 <= x13 <= 1
 0 <= x14 <= 1
 0 <= x15 <= 1
 0 <= x16 <= 1
 0 <= x17 <= 1
 0 <= x18 <= 1
 0 <= x19 <= 1
 0 <= x20 <= 1
 0 <= x21 <= 1
 0 <= x22 <= 1
 0 <= x23 <= 1
 0 <= x24 <= 1
 0 <= x25 <= 1
 0 <= x26 <= 1
 0 <= x27 <= 1
 0 <= x28 <= 1
 0 <= x29 <= 1
 0 <= x30 <= 1
 0 <= x31 <= 1
 0 <= x32 <= 1
 0 <= x33 <= 1
 0 <= x34 <= 1
 0 <= x35 <= 1
 0 <= x36 <= 1
 0 <= x37 <= 1
 0 <= x38 <= 1
 0 <= x39 <= 1
 0 <= x40 <= 1
 0 <= x41 <= 1
 0 <= x42 <= 1
 0 <= x43 <= 1
 0 <= x44 <= 1
 0 <= x45 <= 1
 0 <= x46 <= 1
 0 <= x47 <= 1
 0 <= x48 <= 1
 0 <= x49 <= 1
 0 <= x50 <= 1
 0 <= x51 <= 1
 0 <= x52 <= 1
 0 <= x53 <= 1
 0 <= x54 <= 1
 0 <= x55 <= 1
 0 <= x56 <= 1
 0 <= x57 <= 1
 0 <= x58 <= 1
 0 <= x59 <= 1
 0 <= x60 <= 1
 0 <= x61 <= 1
 0 <= x62 <= 1
 0 <= x63 <= 1
 0 <= x64 <= 1

Binaries
 x0 x1 x2 x3 x4 x5 x6 x7 x8 x9 x10 x11 x12 x13 x14 x15 x16 x17 x18 x19 x20 x21
 x22 x23 x24 x25 x26 x27 x28 x29 x30 x31 x32 x33 x34 x35 x36 x37 x38 x39 x40 x41
 x42 x43 x44 x45 x46 x47 x48 x49 x50 x51 x52 x53 x54 x55 x56 x57 x58 x59 x60 x61
 x62 x63 x64
End
